tsp_instances/TSP20/instance11.tsp
NODE_COORD_SECTION
0 187 29
1 91 185
2 0 84
3 58 111
4 186 186
5 159 144
6 179 188
7 129 19
8 57 159
9 188 50
10 2 84
11 37 157
12 78 59
13 147 101
14 127 101
15 168 158
16 152 194
17 57 22
18 199 125
19 186 133
