tsp_instances/TSP20/instance11.opt.tour
TOUR_SECTION
1
8
13
18
3
11
4
12
9
2
17
7
5
16
6
20
19
14
15
10
-1